decision_x1=[0,2];
decision_x2=[0,2];
decision_x3=[0,2];
decision_x4=[0,2];
decision_x5=[0,2];
random_y1=[0,2];
constraint_x2_x1=[
0,1,5.8|
0,2,2.2|
1,0,1.7|
1,2,7.7|
2,0,2.4|
2,1,4.8|
];
constraint_x3_x1=[
0,1,7.6|
0,2,6.1|
1,0,3|
1,2,8.5|
2,0,0.66|
2,1,5.9|
];
constraint_x4_x1=[
0,1,4|
0,2,9.7|
1,0,0.48|
1,2,6.7|
2,0,1.3|
2,1,9.7|
];
constraint_x5_x1=[
0,1,7.1|
0,2,4.9|
1,0,0.22|
1,2,7.6|
2,0,1.5|
2,1,4.3|
];
constraint_x5_x2=[
0,1,1.8|
0,2,9.5|
1,0,4|
1,2,0.38|
2,0,5.4|
2,1,1.8|
];
constraint_x1_y1=[
0,0,8.8|
0,1,6.5|
0,2,4.1|
1,0,6.6|
1,1,9.5|
1,2,8|
2,0,4.8|
2,1,9|
2,2,7.3|
];
initial_distribution_y1=[0.14,0.73,0.13];
transition_y1=[
0.2,0.63,0.17|
0.33,0.35,0.32|
0.62,0.13,0.25|
];
